CMPL model generation - running

CMPL version: 1.11.0
Authors: Thomas Schleiff, Mike Steglich
Distributed under the GPLv3 

create model instance ...
write model instance ...
CMPL model generation - finished

Solver - running


Welcome to IBM(R) ILOG(R) CPLEX(R) Interactive Optimizer 12.7.1.0
  with Simplex, Mixed Integer & Barrier Optimizers
5725-A06 5725-A29 5724-Y48 5724-Y49 5724-Y54 5724-Y55 5655-Y21
Copyright IBM Corp. 1988, 2017.  All Rights Reserved.

Type 'help' for a list of available commands.
Type 'help' followed by a command name for more
information on commands.

CPLEX> Specified objective sense: MINIMIZE
Selected objective  name:  line[1]
Selected RHS        name:  RHS
Selected bound      name:  BOUND
Problem '/tmp/cmpl.T23540.mps' read.
Read time = 0.05 sec. (8.16 ticks)
CPLEX> CPXPARAM_Read_APIEncoding                        "UTF-8"
Tried aggregator 3 times.
MIP Presolve eliminated 19305 rows and 30824 columns.
MIP Presolve modified 340 coefficients.
Aggregator did 592 substitutions.
Reduced MIP has 2458 rows, 3177 columns, and 9293 nonzeros.
Reduced MIP has 3009 binaries, 0 generals, 0 SOSs, and 0 indicators.
Presolve time = 0.06 sec. (40.22 ticks)
Found incumbent of value 450.001540 after 0.09 sec. (60.71 ticks)
Probing fixed 3 vars, tightened 0 bounds.
Probing time = 0.01 sec. (4.02 ticks)
Tried aggregator 1 time.
MIP Presolve eliminated 0 rows and 3 columns.
MIP Presolve modified 15 coefficients.
Reduced MIP has 2458 rows, 3174 columns, and 9287 nonzeros.
Reduced MIP has 3174 binaries, 0 generals, 0 SOSs, and 0 indicators.
Presolve time = 0.01 sec. (7.89 ticks)
Probing time = 0.01 sec. (2.66 ticks)
Clique table members: 5387.
MIP emphasis: balance optimality and feasibility.
MIP search method: dynamic search.
Parallel mode: none, using 1 thread.
Root relaxation solution time = 0.00 sec. (4.22 ticks)

        Nodes                                         Cuts/
   Node  Left     Objective  IInf  Best Integer    Best Bound    ItCnt     Gap

*     0+    0                          450.0015      -48.4363           110.76%
      0     0       24.1724    21      450.0015       24.1724       64   94.63%
*     0+    0                           69.7368       24.1724            65.34%
*     0+    0                           24.7724       24.1724             2.42%
*     0     0      integral     0       24.7564       Cuts: 8       69    0.00%
      0     0        cutoff             24.7564       24.7564       69    0.00%
Elapsed time = 0.16 sec. (98.24 ticks, tree = 0.01 MB, solutions = 4)

Clique cuts applied:  2
Cover cuts applied:  4
Gomory fractional cuts applied:  2

Root node processing (before b&c):
  Real time             =    0.17 sec. (99.96 ticks)
Sequential b&c:
  Real time             =    0.00 sec. (0.00 ticks)
                          ------------
Total (root+branch&cut) =    0.17 sec. (99.96 ticks)

Solution pool: 4 solutions saved.

MIP - Integer optimal solution:  Objective =  2.4756397000e+01
Solution time =    0.17 sec.  Iterations = 69  Nodes = 0
Deterministic time = 100.06 ticks  (599.63 ticks/sec)

CPLEX> Incumbent solution written to file '/tmp/cmpl.T23540.gsol'.
CPLEX> 
CMPL: Time used for model generation: 1 seconds
CMPL: Time used for solving the model: 1 seconds


Solution written to ASCII file: results/output_generated_conf_0.1/2017-01-09-4/fair-nonlinear.sol

Solver - finished
